data;

param num_top:=4;

#nodes and edges of the physical network
param n := 7;

set E := (1,2) (1,7) (2,3) (2,6) (2,7) (3,4) (3,6) (4,5) (4,6) (5,6) (6,7) ;

#nodes and edges of the virtual networks
set Nl[1] := 4 7 6 3 ;
set Nl[2] := 6 7 2 4 ;
set Nl[3] := 5 3 1 2 ;
set Nl[4] := 4 7 2 3 ;

set El[1] := (4,7) (6,7) (3,6) (3,4) ;
set El[2] := (6,7) (2,7) (2,4) (4,6) ;
set El[3] := (3,5) (1,3) (1,2) (2,5) ;
set El[4] := (4,7) (2,7) (2,3) (3,4) ;
